DATASET = "thpack4";
INSTANCE = "078";

WIDTH = 233;
HEIGHT = 220;
LENGTH = 587;

NO_OF_SHAPES = 10;
size = [|
  105,68,42 |
  75,37,24 |
  79,73,26 |
  95,53,38 |
  50,41,40 |
  80,59,52 |
  90,74,35 |
  87,60,60 |
  68,50,39 |
  78,64,25 |
|];

verticality = [|
  0,1,1 |
  0,1,1 |
  0,0,1 |
  0,1,1 |
  1,1,1 |
  1,1,1 |
  0,0,1 |
  1,1,1 |
  1,1,1 |
  0,0,1 |
|];

box_count = [
  15,
  20,
  20,
  13,
  10,
  19,
  19,
  14,
  15,
  19,
];
